Route #1: 6 40 30 14 43 29 5 
Route #2: 47 23 25 26 46 48 16 51 24 
Route #3: 18 11 3 39 35 19 
Route #4: 37 17 41 36 4 20 34 49 
Route #5: 9 13 38 33 32 28 42 
Route #6: 7 8 15 27 44 12 
Route #7: 22 45 21 2 10 50 31 
cost 1045.7
